p tw 20 50
e 0 4
e 0 8
e 0 11
e 0 14
e 0 18
e 1 5
e 1 10
e 1 11
e 1 12
e 2 3
e 2 6
e 2 7
e 2 9
e 2 15
e 2 19
e 3 5
e 3 6
e 3 11
e 3 12
e 3 14
e 3 15
e 3 17
e 4 9
e 4 13
e 4 19
e 5 10
e 5 18
e 6 9
e 6 10
e 6 12
e 6 13
e 6 14
e 7 16
e 7 17
e 8 19
e 9 14
e 9 16
e 9 19
e 10 12
e 10 13
e 10 14
e 10 15
e 11 17
e 12 14
e 12 19
e 13 15
e 13 16
e 13 17
e 14 16
e 15 16
